Problem:    ModelGLPK_anguibactin
Rows:       25
Columns:    33 (33 integer, 33 binary)
Non-zeros:  231
Status:     INTEGER OPTIMAL
Objective:  number_of_installed_atoms = 24 (MAXimum)

   No.   Row name        Activity     Lower bound   Upper bound
------ ------------    ------------- ------------- -------------
     1 Atom_Owner[a0]
                                   1                           1 
     2 Atom_Owner[a1]
                                   1                           1 
     3 Atom_Owner[a2]
                                   1                           1 
     4 Atom_Owner[a3]
                                   1                           1 
     5 Atom_Owner[a4]
                                   1                           1 
     6 Atom_Owner[a5]
                                   1                           1 
     7 Atom_Owner[a6]
                                   1                           1 
     8 Atom_Owner[a7]
                                   1                           1 
     9 Atom_Owner[a8]
                                   1                           1 
    10 Atom_Owner[a9]
                                   1                           1 
    11 Atom_Owner[a10]
                                   1                           1 
    12 Atom_Owner[a11]
                                   1                           1 
    13 Atom_Owner[a12]
                                   1                           1 
    14 Atom_Owner[a13]
                                   1                           1 
    15 Atom_Owner[a14]
                                   1                           1 
    16 Atom_Owner[a15]
                                   1                           1 
    17 Atom_Owner[a16]
                                   1                           1 
    18 Atom_Owner[a17]
                                   1                           1 
    19 Atom_Owner[a18]
                                   1                           1 
    20 Atom_Owner[a19]
                                   1                           1 
    21 Atom_Owner[a20]
                                   1                           1 
    22 Atom_Owner[a21]
                                   1                           1 
    23 Atom_Owner[a22]
                                   1                           1 
    24 Atom_Owner[a23]
                                   1                           1 
    25 number_of_installed_atoms
                                  24                             

   No. Column name       Activity     Lower bound   Upper bound
------ ------------    ------------- ------------- -------------
     1 install[m0]  *              0             0             1 
     2 install[m1]  *              0             0             1 
     3 install[m2]  *              0             0             1 
     4 install[m3]  *              0             0             1 
     5 install[m4]  *              0             0             1 
     6 install[m5]  *              0             0             1 
     7 install[m6]  *              0             0             1 
     8 install[m7]  *              0             0             1 
     9 install[m8]  *              0             0             1 
    10 install[m9]  *              0             0             1 
    11 install[m10] *              0             0             1 
    12 install[m11] *              0             0             1 
    13 install[m12] *              0             0             1 
    14 install[m13] *              0             0             1 
    15 install[m14] *              0             0             1 
    16 install[m15] *              0             0             1 
    17 install[m16] *              0             0             1 
    18 install[m17] *              0             0             1 
    19 install[m18] *              0             0             1 
    20 install[m19] *              0             0             1 
    21 install[m20] *              0             0             1 
    22 install[m21] *              0             0             1 
    23 install[m22] *              0             0             1 
    24 install[m23] *              0             0             1 
    25 install[m24] *              0             0             1 
    26 install[m25] *              0             0             1 
    27 install[m26] *              0             0             1 
    28 install[m27] *              0             0             1 
    29 install[m28] *              0             0             1 
    30 install[m29] *              0             0             1 
    31 install[m30] *              1             0             1 
    32 install[m31] *              1             0             1 
    33 install[m32] *              0             0             1 

Integer feasibility conditions:

KKT.PE: max.abs.err = 0.00e+00 on row 0
        max.rel.err = 0.00e+00 on row 0
        High quality

KKT.PB: max.abs.err = 0.00e+00 on row 0
        max.rel.err = 0.00e+00 on row 0
        High quality

End of output
